p cnf 14 64
1 -9 11 0
4 -9 -12 0
-1 -2 -12 0
-5 8 -12 0
-2 -3 6 0
1 5 -6 0
2 -5 11 0
-2 -5 11 0
2 -9 -12 0
1 4 8 0
-2 -7 -11 0
-2 10 11 0
2 7 -12 0
8 9 14 0
-1 8 -11 0
-7 13 -14 0
2 4 -11 0
-2 11 13 0
2 3 4 0
6 8 12 0
-11 12 13 0
-2 -6 11 0
-5 -7 -8 0
6 11 -12 0
-5 -13 14 0
-1 6 -9 0
-5 -12 -14 0
-2 4 12 0
5 -10 -12 0
-1 -2 -13 0
4 -9 -10 0
-5 -8 12 0
-3 9 -14 0
2 -7 -9 0
2 -8 11 0
-2 5 14 0
-1 -5 14 0
-3 -4 5 0
-2 3 4 0
1 4 -5 0
-7 -12 -13 0
-4 5 6 0
1 2 -8 0
4 -11 -12 0
-4 5 -6 0
2 -4 12 0
-3 5 10 0
8 9 -11 0
-4 -5 -14 0
-8 -11 -14 0
-6 -8 12 0
-1 -10 -11 0
7 9 14 0
3 9 -10 0
1 12 14 0
11 12 13 0
-3 -6 12 0
-3 -10 13 0
1 3 6 0
2 5 -13 0
-5 -7 11 0
-1 10 -14 0
9 10 -13 0
8 -9 11 0
